************************************************************************
file with basedata            : cn149_.bas
initial value random generator: 1576147129
************************************************************************
projects                      :  1
jobs (incl. supersource/sink ):  18
horizon                       :  145
RESOURCES
  - renewable                 :  2   R
  - nonrenewable              :  1   N
  - doubly constrained        :  0   D
************************************************************************
PROJECT INFORMATION:
pronr.  #jobs rel.date duedate tardcost  MPM-Time
    1     16      0       17        3       17
************************************************************************
PRECEDENCE RELATIONS:
jobnr.    #modes  #successors   successors
   1        1          3           2   3   4
   2        3          3           5  11  12
   3        3          3          10  12  13
   4        3          3           5   6  11
   5        3          2           7   8
   6        3          1           9
   7        3          2          10  15
   8        3          2          16  17
   9        3          2          13  14
  10        3          2          14  16
  11        3          3          13  15  17
  12        3          2          14  15
  13        3          1          16
  14        3          1          17
  15        3          1          18
  16        3          1          18
  17        3          1          18
  18        1          0        
************************************************************************
REQUESTS/DURATIONS:
jobnr. mode duration  R 1  R 2  N 1
------------------------------------------------------------------------
  1      1     0       0    0    0
  2      1     5       6    0    9
         2     5       0    7    6
         3     8       0    6    6
  3      1     6       0    4    7
         2     6       4    0    6
         3     8       0    4    6
  4      1     1       4    0    8
         2     9       0    7    7
         3    10       0    6    4
  5      1     1       4    0    9
         2     8       0    7    6
         3     9       0    1    1
  6      1     2       6    0    7
         2     9       0    1    7
         3    10       2    0    6
  7      1     1       5    0    8
         2     4       0    5    7
         3    10       0    3    6
  8      1     1       0    8    5
         2     5       0    7    4
         3    10       0    3    1
  9      1     2       0    6    3
         2     5       0    4    3
         3     8       0    3    2
 10      1     3       0    7    2
         2     8       6    0    1
         3    10       4    0    1
 11      1     1       0    9    9
         2     5       0    9    7
         3     8       0    8    5
 12      1     1       7    0    7
         2     2       0    9    5
         3     8       0    5    4
 13      1     1       0    2    7
         2     9       0    2    5
         3    10       0    2    3
 14      1     5       3    0    5
         2     9       0    6    4
         3     9       3    0    2
 15      1     1       7    0    5
         2     3       6    0    5
         3    10       0    8    4
 16      1     3       0   10    5
         2     3       9    0    3
         3     9       8    0    1
 17      1     2       2    0    7
         2     6       0    6    7
         3     8       0    4    7
 18      1     0       0    0    0
************************************************************************
RESOURCEAVAILABILITIES:
  R 1  R 2  N 1
    4   12   92
************************************************************************
